% seed = 3482971

mint = 65;
% maxt = 123;

nActs = 22;
dur = [0,7,1,3,5,10,4,4,9,9,2,4,7,9,7,3,7,9,8,8,7,0];

nSkills = 4;
sreq = [| 0,0,0,0,
	| 1,1,1,2,
	| 3,1,2,2,
	| 2,2,3,3,
	| 1,3,1,2,
	| 2,2,2,2,
	| 3,2,3,3,
	| 2,2,3,2,
	| 2,3,1,3,
	| 1,2,2,3,
	| 1,2,1,1,
	| 1,1,2,2,
	| 3,2,1,1,
	| 2,3,3,2,
	| 2,1,3,1,
	| 3,3,2,1,
	| 3,1,1,3,
	| 3,2,3,1,
	| 1,2,3,1,
	| 3,1,3,2,
	| 3,3,1,1,
	| 0,0,0,0, |];

nResources = 25;
mastery = [| false,false,true,true,
	| true,true,false,false,
	| false,false,false,true,
	| true,false,true,false,
	| true,true,false,true,
	| false,true,false,false,
	| true,false,true,true,
	| false,true,true,true,
	| false,true,true,false,
	| true,false,true,false,
	| true,false,false,false,
	| false,true,false,true,
	| false,true,false,true,
	| false,true,false,false,
	| false,false,true,true,
	| false,true,false,true,
	| true,true,false,true,
	| true,false,false,false,
	| true,true,false,false,
	| true,false,false,true,
	| true,true,false,false,
	| true,true,false,true,
	| false,false,true,false,
	| false,true,true,false,
	| false,true,false,true, |];

nPrecs = 31;
pred = [1,1,1,2,2,3,4,5,5,6,6,7,8,8,8,9,10,11,12,13,13,14,15,15,16,17,17,18,19,20,21];
succ = [2,3,4,17,5,9,6,11,7,10,8,14,18,20,13,20,12,21,14,19,16,15,17,16,21,18,19,21,22,22,22];

nUnrels = 95;
unpred = [2,2,2,2,2,2,2,2,2,3,3,3,3,3,3,3,3,3,3,3,3,3,3,3,3,4,4,4,4,5,5,5,5,5,5,5,6,6,6,7,7,7,7,7,7,7,8,8,8,8,8,8,8,9,9,9,9,9,9,9,9,9,9,9,10,10,10,11,11,11,11,11,11,11,11,11,12,12,13,13,13,13,13,14,15,16,16,16,16,17,18,18,19,19,20];
unsucc = [3,4,6,8,9,10,12,13,20,4,5,6,7,8,10,11,12,13,14,15,16,17,18,19,21,5,7,9,11,6,8,9,10,12,13,20,7,9,11,8,9,10,11,12,13,20,9,10,11,12,14,15,17,10,11,12,13,14,15,16,17,18,19,21,11,13,20,12,13,14,15,16,17,18,19,20,13,20,14,15,17,18,20,20,20,17,18,19,20,20,19,20,20,21,21];

USEFUL_RES = [{},
	{1,2,3,4,5,6,7,8,9,10,11,12,13,14,15,16,17,18,19,20,21,22,23,24,25},
	{1,2,3,4,5,6,7,8,9,10,11,12,13,14,15,16,17,18,19,20,21,22,23,24,25},
	{1,2,3,4,5,6,7,8,9,10,11,12,13,14,15,16,17,18,19,20,21,22,23,24,25},
	{1,2,3,4,5,6,7,8,9,10,11,12,13,14,15,16,17,18,19,20,21,22,23,24,25},
	{1,2,3,4,5,6,7,8,9,10,11,12,13,14,15,16,17,18,19,20,21,22,23,24,25},
	{1,2,3,4,5,6,7,8,9,10,11,12,13,14,15,16,17,18,19,20,21,22,23,24,25},
	{1,2,3,4,5,6,7,8,9,10,11,12,13,14,15,16,17,18,19,20,21,22,23,24,25},
	{1,2,3,4,5,6,7,8,9,10,11,12,13,14,15,16,17,18,19,20,21,22,23,24,25},
	{1,2,3,4,5,6,7,8,9,10,11,12,13,14,15,16,17,18,19,20,21,22,23,24,25},
	{1,2,3,4,5,6,7,8,9,10,11,12,13,14,15,16,17,18,19,20,21,22,23,24,25},
	{1,2,3,4,5,6,7,8,9,10,11,12,13,14,15,16,17,18,19,20,21,22,23,24,25},
	{1,2,3,4,5,6,7,8,9,10,11,12,13,14,15,16,17,18,19,20,21,22,23,24,25},
	{1,2,3,4,5,6,7,8,9,10,11,12,13,14,15,16,17,18,19,20,21,22,23,24,25},
	{1,2,3,4,5,6,7,8,9,10,11,12,13,14,15,16,17,18,19,20,21,22,23,24,25},
	{1,2,3,4,5,6,7,8,9,10,11,12,13,14,15,16,17,18,19,20,21,22,23,24,25},
	{1,2,3,4,5,6,7,8,9,10,11,12,13,14,15,16,17,18,19,20,21,22,23,24,25},
	{1,2,3,4,5,6,7,8,9,10,11,12,13,14,15,16,17,18,19,20,21,22,23,24,25},
	{1,2,3,4,5,6,7,8,9,10,11,12,13,14,15,16,17,18,19,20,21,22,23,24,25},
	{1,2,3,4,5,6,7,8,9,10,11,12,13,14,15,16,17,18,19,20,21,22,23,24,25},
	{1,2,3,4,5,6,7,8,9,10,11,12,13,14,15,16,17,18,19,20,21,22,23,24,25},
	{}];

POTENTIAL_ACT = [{2,3,4,5,6,7,8,9,10,11,12,13,14,15,16,17,18,19,20,21},
	{2,3,4,5,6,7,8,9,10,11,12,13,14,15,16,17,18,19,20,21},
	{2,3,4,5,6,7,8,9,10,11,12,13,14,15,16,17,18,19,20,21},
	{2,3,4,5,6,7,8,9,10,11,12,13,14,15,16,17,18,19,20,21},
	{2,3,4,5,6,7,8,9,10,11,12,13,14,15,16,17,18,19,20,21},
	{2,3,4,5,6,7,8,9,10,11,12,13,14,15,16,17,18,19,20,21},
	{2,3,4,5,6,7,8,9,10,11,12,13,14,15,16,17,18,19,20,21},
	{2,3,4,5,6,7,8,9,10,11,12,13,14,15,16,17,18,19,20,21},
	{2,3,4,5,6,7,8,9,10,11,12,13,14,15,16,17,18,19,20,21},
	{2,3,4,5,6,7,8,9,10,11,12,13,14,15,16,17,18,19,20,21},
	{2,3,4,5,6,7,8,9,10,11,12,13,14,15,16,17,18,19,20,21},
	{2,3,4,5,6,7,8,9,10,11,12,13,14,15,16,17,18,19,20,21},
	{2,3,4,5,6,7,8,9,10,11,12,13,14,15,16,17,18,19,20,21},
	{2,3,4,5,6,7,8,9,10,11,12,13,14,15,16,17,18,19,20,21},
	{2,3,4,5,6,7,8,9,10,11,12,13,14,15,16,17,18,19,20,21},
	{2,3,4,5,6,7,8,9,10,11,12,13,14,15,16,17,18,19,20,21},
	{2,3,4,5,6,7,8,9,10,11,12,13,14,15,16,17,18,19,20,21},
	{2,3,4,5,6,7,8,9,10,11,12,13,14,15,16,17,18,19,20,21},
	{2,3,4,5,6,7,8,9,10,11,12,13,14,15,16,17,18,19,20,21},
	{2,3,4,5,6,7,8,9,10,11,12,13,14,15,16,17,18,19,20,21},
	{2,3,4,5,6,7,8,9,10,11,12,13,14,15,16,17,18,19,20,21},
	{2,3,4,5,6,7,8,9,10,11,12,13,14,15,16,17,18,19,20,21},
	{2,3,4,5,6,7,8,9,10,11,12,13,14,15,16,17,18,19,20,21},
	{2,3,4,5,6,7,8,9,10,11,12,13,14,15,16,17,18,19,20,21},
	{2,3,4,5,6,7,8,9,10,11,12,13,14,15,16,17,18,19,20,21}];
